
List of user-set options:

                                    Name   Value                used
                           compl_inf_tol = 1                     yes
                         constr_viol_tol = 1                     yes
                            dual_inf_tol = 1000                  yes
                           linear_solver = ma97                  yes
                              ma86_small = 1e-30                  no
                                  ma86_u = 0.0001                 no
                              ma97_order = best                  yes
                              ma97_small = 1e-30                 yes
                            ma97_switch1 = at_start              yes
                            ma97_switch2 = od_hd_reuse           yes
                                  ma97_u = 1e-06                 yes
                               ma97_umax = 0.5                   yes
                                max_iter = 1000                  yes
                    max_refinement_steps = 20                    yes
                    min_refinement_steps = 5                     yes
                                 mu_init = 1e-06                 yes
           mu_superlinear_decrease_power = 1.25                  yes
                   nlp_scaling_min_value = 1e-08                 yes
                        option_file_name = Preset_Case_686_pf.opt  yes
                             output_file = ./tmp/Preset_Case_686_pf.output  yes
                      print_user_options = yes                   yes
        required_infeasibility_reduction = 1                      no
                                     tol = 1e-08                 yes
                   warm_start_bound_frac = 1e-20                 yes
                   warm_start_bound_push = 1e-20                 yes
                   warm_start_init_point = yes                   yes
              warm_start_mult_bound_push = 1e-20                 yes
                warm_start_mult_init_max = 1e+40                 yes
             warm_start_slack_bound_frac = 1e-20                 yes
             warm_start_slack_bound_push = 1e-20                 yes

******************************************************************************
This program contains Ipopt, a library for large-scale nonlinear optimization.
 Ipopt is released as open source code under the Eclipse Public License (EPL).
         For more information visit http://projects.coin-or.org/Ipopt
******************************************************************************

This is Ipopt version 3.12.10, running with linear solver ma97.

Number of nonzeros in equality constraint Jacobian...:   123442
Number of nonzeros in inequality constraint Jacobian.:      213
Number of nonzeros in Lagrangian Hessian.............:    49069

Total number of variables............................:    31591
                     variables with only lower bounds:    12912
                variables with lower and upper bounds:    15130
                     variables with only upper bounds:        0
Total number of equality constraints.................:    31483
Total number of inequality constraints...............:       25
        inequality constraints with only lower bounds:        4
   inequality constraints with lower and upper bounds:        0
        inequality constraints with only upper bounds:       21

iter    objective    inf_pr   inf_du lg(mu)  ||d||  lg(rg) alpha_du alpha_pr  ls
   0 -5.1562344e+00 4.07e-03 1.02e+00  -6.0 0.00e+00    -  0.00e+00 0.00e+00   0
   1 -5.1612884e+00 1.89e+00 1.79e+01  -6.0 3.68e+05    -  8.70e-05 5.75e-04h  1
   2 -5.1613010e+00 1.89e+00 4.78e+01  -6.0 7.38e+01  -4.0 2.03e-01 2.81e-04h  1
   3 -5.2105465e+00 1.73e+00 2.00e+02  -6.0 8.78e+03    -  5.15e-02 9.22e-02h  1
   4 -5.2645136e+00 1.56e+00 3.79e+02  -6.0 6.58e+03    -  4.14e-01 1.10e-01h  1
   5 -5.4411711e+00 7.89e+00 1.01e+03  -6.0 4.58e+03    -  3.08e-01 2.36e-01h  1
   6 -5.5797486e+00 1.19e+01 2.06e+03  -6.0 3.41e+03    -  4.90e-01 4.49e-01h  1
   7 -5.6450791e+00 1.19e+01 2.39e+03  -6.0 1.48e+03    -  2.55e-01 3.37e-01h  1
   8 -5.6715709e+00 1.05e+01 2.49e+03  -6.0 2.07e+03    -  2.26e-01 1.33e-01h  1
   9 -5.6720321e+00 1.02e+01 4.59e+03  -6.0 2.65e+01  -4.5 1.64e-01 3.15e-02h  1
iter    objective    inf_pr   inf_du lg(mu)  ||d||  lg(rg) alpha_du alpha_pr  ls
  10 -5.7454198e+00 4.76e+00 2.51e+04  -6.0 1.18e+03    -  9.72e-02 7.84e-01f  1
  11 -5.7404481e+00 3.46e+00 4.01e+04  -6.0 5.98e+01  -5.0 4.39e-02 2.74e-01h  1
  12 -5.7359501e+00 1.71e-01 8.67e+03  -6.0 6.82e+00  -5.4 9.09e-01 9.51e-01h  1
  13 -5.7433247e+00 1.05e-01 1.68e+05  -6.0 1.62e+01  -5.9 1.00e+00 3.88e-01h  1
  14 -5.7665571e+00 5.12e-02 1.41e+05  -6.0 3.59e+01  -6.4 5.21e-01 1.00e+00h  1
  15 -5.7755782e+00 4.68e-02 7.81e+05  -6.0 7.40e+01  -6.9 6.97e-01 2.68e-01h  1
  16 -5.7769066e+00 4.59e-02 1.46e+06  -6.0 2.19e+02  -7.3 2.06e-01 2.48e-02h  1
  17r-5.7769066e+00 4.59e-02 1.00e+03  -1.3 0.00e+00  -6.9 0.00e+00 7.75e-08R  2
  18r-5.7797130e+00 4.48e-02 1.00e+03  -1.3 4.03e+03    -  4.82e-05 2.39e-05f  1
  19 -5.7857386e+00 7.96e-01 2.99e+02  -6.0 3.16e+05    -  1.15e-03 7.33e-04h  1
iter    objective    inf_pr   inf_du lg(mu)  ||d||  lg(rg) alpha_du alpha_pr  ls
  20 -5.8353686e+00 7.67e+01 3.15e+02  -6.0 1.91e+05    -  1.33e-03 1.19e-02h  1
  21 -5.8376005e+00 7.65e+01 3.14e+02  -6.0 5.60e+04    -  7.26e-04 2.19e-03h  1
  22 -5.8387949e+00 7.64e+01 3.13e+02  -6.0 3.61e+04    -  5.01e-03 1.64e-03h  1
  23 -5.8476301e+00 7.54e+01 3.09e+02  -6.0 3.60e+04    -  1.65e-02 1.37e-02h  1
  24 -5.8521052e+00 7.26e+01 2.98e+02  -6.0 2.77e+04    -  2.71e-02 3.73e-02h  1
  25 -5.8536081e+00 7.10e+01 2.91e+02  -6.0 1.43e+04    -  5.51e-02 2.27e-02h  1
  26 -5.8581381e+00 6.65e+01 2.72e+02  -6.0 1.35e+04    -  5.32e-02 6.67e-02h  1
  27 -5.8814736e+00 6.13e+01 8.39e+02  -6.0 1.66e+04    -  1.62e-02 8.59e-02h  1
  28 -5.8822132e+00 5.53e+01 1.94e+04  -6.0 1.60e+03  -7.4 3.49e-03 1.06e-01h  1
  29 -5.8834469e+00 4.51e+01 1.58e+04  -6.0 2.23e+03  -7.9 1.41e-02 1.85e-01h  1
iter    objective    inf_pr   inf_du lg(mu)  ||d||  lg(rg) alpha_du alpha_pr  ls
  30 -5.8851891e+00 4.47e+01 1.57e+04  -6.0 6.34e+03  -8.3 9.84e-02 7.74e-03h  1
  31 -5.8897860e+00 4.47e+01 1.56e+04  -6.0 1.17e+05  -8.8 5.63e-03 1.18e-03h  1
  32 -5.8938185e+00 3.84e+01 1.34e+04  -6.0 7.59e+03    -  1.16e-01 1.40e-01h  1
  33 -5.8976402e+00 4.38e+01 1.02e+04  -6.0 3.59e+03    -  3.46e-01 2.40e-01h  1
  34 -5.9006160e+00 9.00e+01 6.38e+03  -6.0 4.69e+03    -  4.04e-01 3.76e-01h  1
  35 -5.9047912e+00 8.29e+01 1.43e+05  -6.0 2.97e+03    -  5.40e-02 4.33e-01h  1
  36 -5.9062381e+00 7.61e+01 1.48e+05  -6.0 2.13e+02  -8.4 4.44e-01 8.25e-02h  1
  37 -5.9218186e+00 1.54e+01 9.41e+04  -6.0 5.62e+02  -8.9 1.67e-01 8.78e-01h  1
  38 -5.9323541e+00 1.06e+01 2.43e+04  -6.0 7.00e+02  -9.4 4.77e-01 4.27e-01h  1
  39 -5.9335511e+00 1.69e+01 5.50e+04  -6.0 8.45e+03    -  3.50e-02 7.03e-02h  1
iter    objective    inf_pr   inf_du lg(mu)  ||d||  lg(rg) alpha_du alpha_pr  ls
  40 -5.9409828e+00 1.52e+01 3.23e+05  -6.0 1.29e+03    -  1.55e-01 4.11e-01h  1
  41 -5.9414271e+00 1.44e+01 3.75e+05  -6.0 1.49e+03    -  6.99e-02 6.17e-02h  1
  42 -5.9468000e+00 1.23e+01 1.01e+08  -6.0 1.14e+03    -  1.46e-04 3.60e-01h  1
  43 -5.9488926e+00 1.11e+01 9.05e+07  -6.0 6.68e+02    -  1.07e-01 1.01e-01h  1
  44 -5.9398709e+00 7.81e+00 6.50e+06  -6.0 6.78e+02    -  2.74e-01 9.28e-01h  1
  45 -5.9457263e+00 2.04e-01 1.28e+03  -6.0 9.97e+01  -6.2 4.82e-01 1.00e+00h  1
  46 -5.9458642e+00 1.71e-01 7.26e+03  -6.0 4.53e+01  -6.7 9.63e-01 1.62e-01h  1
  47 -5.9453017e+00 2.93e-02 1.38e+02  -6.0 2.20e+01  -6.3 5.66e-01 1.00e+00h  1
  48 -5.9457704e+00 2.77e-02 2.34e+05  -6.0 9.08e+02    -  9.31e-01 3.40e-02h  1
  49 -5.9535454e+00 3.08e+00 8.52e+04  -6.0 8.59e+02    -  4.63e-01 6.06e-01h  1
iter    objective    inf_pr   inf_du lg(mu)  ||d||  lg(rg) alpha_du alpha_pr  ls
  50 -5.9573360e+00 3.11e+00 2.42e+05  -6.0 9.48e+02    -  5.92e-03 2.70e-01h  1
  51 -5.9584651e+00 3.02e+00 1.40e+06  -6.0 1.35e+03    -  4.76e-01 5.52e-02h  1
  52r-5.9584651e+00 3.02e+00 1.00e+03   0.3 0.00e+00    -  0.00e+00 6.38e-08R  2
  53r-5.9680950e+00 3.02e+00 1.00e+03   0.3 1.43e+04    -  4.02e-06 1.09e-06f  1
  54 -5.9672808e+00 2.78e+00 2.08e+05  -6.0 5.57e+00    -  2.07e-01 7.82e-02h  1
  55 -5.9630565e+00 1.56e+00 1.67e+06  -6.0 5.36e+00    -  7.82e-02 4.41e-01h  1
  56 -5.9589807e+00 3.57e-01 3.82e+05  -6.0 3.32e+00    -  8.33e-01 7.71e-01h  1
  57 -5.9596791e+00 1.94e-02 2.08e+04  -6.0 1.23e+00    -  8.11e-01 9.46e-01h  1
  58 -5.9639357e+00 7.65e-03 2.15e+03  -6.0 2.16e+00    -  6.12e-01 8.97e-01f  1
  59 -5.9616422e+00 1.98e-03 1.37e+02  -6.0 2.15e+00    -  6.69e-01 1.00e+00h  1
iter    objective    inf_pr   inf_du lg(mu)  ||d||  lg(rg) alpha_du alpha_pr  ls
  60 -5.9646762e+00 6.72e-03 2.10e+01  -6.0 1.79e+01    -  4.91e-01 3.59e-01h  1
  61 -5.9649446e+00 1.70e-02 1.36e+01  -6.0 1.99e+01    -  9.05e-01 1.00e+00h  1
  62 -5.9661222e+00 4.55e-01 3.77e+01  -6.0 1.71e+02    -  5.59e-01 9.91e-01h  1
  63 -5.9664934e+00 4.22e-01 1.69e+03  -6.0 2.94e+02    -  6.79e-01 1.12e-01h  1
  64 -5.9725656e+00 4.66e+00 2.68e+02  -6.0 5.39e+02    -  9.02e-01 1.00e+00h  1
  65 -5.9737055e+00 4.08e+00 9.33e+03  -6.0 5.28e+02    -  4.28e-01 1.38e-01h  1
  66 -5.9818465e+00 4.77e+00 4.46e+03  -6.0 5.05e+02    -  8.64e-01 1.00e+00h  1
  67 -5.9842701e+00 3.82e+00 8.84e+03  -6.0 6.35e+02    -  1.95e-01 2.25e-01h  1
  68 -5.9957106e+00 5.34e+00 1.19e+05  -6.0 5.79e+02    -  5.09e-01 9.67e-01h  1
  69 -5.9991597e+00 4.55e+00 7.51e+05  -6.0 4.78e+02    -  9.09e-01 1.65e-01h  1
iter    objective    inf_pr   inf_du lg(mu)  ||d||  lg(rg) alpha_du alpha_pr  ls
  70 -6.0124814e+00 3.44e+00 1.89e+05  -6.0 5.34e+02    -  3.86e-01 5.61e-01h  1
  71r-6.0124814e+00 3.44e+00 1.00e+03   0.5 0.00e+00    -  0.00e+00 2.55e-07R  2
  72r-6.0271722e+00 3.44e+00 1.00e+03   0.5 1.55e+04    -  6.14e-07 8.44e-07f  1
  73 -6.0258746e+00 3.11e+00 5.12e+05  -6.0 1.31e+00    -  4.14e-01 9.68e-02h  1
  74 -6.0215812e+00 1.88e+00 2.36e+06  -6.0 1.19e+00    -  9.68e-02 3.94e-01h  1
  75 -6.0186812e+00 8.84e-01 1.11e+06  -6.0 9.98e-01    -  8.37e-01 5.31e-01h  1
  76 -6.0244055e+00 2.93e-01 3.67e+05  -6.0 4.10e+00    -  6.51e-01 6.68e-01h  1
  77 -6.0309047e+00 7.04e-02 8.82e+04  -6.0 3.80e+00    -  4.43e-01 7.60e-01h  1
  78 -6.0311870e+00 1.77e-03 6.46e+01  -6.0 4.77e+00    -  5.64e-01 1.00e+00h  1
  79 -6.0316598e+00 1.73e-03 1.31e+01  -6.0 9.12e+00    -  7.35e-01 1.00e+00h  1
iter    objective    inf_pr   inf_du lg(mu)  ||d||  lg(rg) alpha_du alpha_pr  ls
  80 -6.0319064e+00 5.47e-03 1.56e+00  -6.0 1.75e+01    -  9.59e-01 1.00e+00h  1
  81 -6.0333687e+00 8.96e-02 2.17e+00  -6.0 1.27e+02    -  7.79e-01 1.00e+00h  1
  82 -6.0338738e+00 9.14e-02 7.70e+00  -6.0 3.03e+03    -  1.35e-02 1.90e-02h  1
  83 -6.0350407e+00 9.85e-02 3.26e+03  -6.0 2.72e+02    -  9.16e-01 3.50e-01h  1
  84 -6.0367538e+00 1.10e-01 1.04e+04  -6.0 5.82e+02    -  9.17e-01 2.91e-01f  1
  85 -6.0418385e+00 3.78e+00 5.98e+02  -6.0 4.84e+02    -  9.70e-01 1.00e+00h  1
  86 -6.0435880e+00 2.91e+00 9.18e+04  -6.0 3.22e+02    -  1.00e+00 2.40e-01h  1
  87 -6.0517716e+00 5.90e-01 3.96e+04  -6.0 3.26e+02    -  5.40e-01 1.00e+00h  1
  88 -6.0554356e+00 4.74e-01 1.59e+04  -6.0 4.07e+02    -  3.03e-01 2.43e-01h  1
  89 -6.0636754e+00 2.63e-01 2.73e+05  -6.0 4.77e+02    -  6.59e-01 4.48e-01h  1
iter    objective    inf_pr   inf_du lg(mu)  ||d||  lg(rg) alpha_du alpha_pr  ls
  90r-6.0636754e+00 2.63e-01 1.00e+03  -0.7 0.00e+00    -  0.00e+00 2.23e-07R  2
  91r-6.0685865e+00 2.62e-01 1.00e+03  -0.7 7.03e+03    -  1.42e-05 5.56e-06f  1
  92 -6.0680484e+00 2.30e-01 9.55e+05  -6.0 6.42e-01    -  7.13e-01 1.22e-01h  1
  93 -6.0673929e+00 1.54e-01 2.60e+06  -6.0 1.41e+00    -  1.22e-01 3.29e-01h  1
  94 -6.0667436e+00 3.35e-04 1.46e+02  -6.0 1.35e+00    -  6.81e-01 1.00e+00h  1
  95 -6.0693368e+00 7.28e-04 3.65e+01  -6.0 1.67e+00    -  7.20e-01 7.38e-01h  1
  96 -6.0724354e+00 1.96e-03 8.81e+00  -6.0 2.32e+00    -  7.35e-01 1.00e+00f  1
  97 -6.0716519e+00 7.06e-04 1.80e-01  -6.0 6.34e+00    -  9.80e-01 1.00e+00h  1
  98 -6.0717294e+00 1.06e-04 1.92e+03  -6.0 5.07e+01    -  9.83e-01 1.00e+00H  1
  99 -6.0724535e+00 2.42e-02 4.54e+00  -6.0 2.61e+02    -  9.44e-01 1.00e+00h  1
iter    objective    inf_pr   inf_du lg(mu)  ||d||  lg(rg) alpha_du alpha_pr  ls
 100 -6.0721339e+00 7.39e-04 4.73e-03  -6.0 1.68e+01    -  1.00e+00 1.00e+00h  1
 101 -6.0721314e+00 2.03e-05 4.65e-06  -6.0 1.14e+00    -  1.00e+00 1.00e+00h  1
 102 -6.0721314e+00 4.26e-10 1.82e-11  -6.0 2.02e-04    -  1.00e+00 1.00e+00h  1
 103 -6.0722454e+00 3.35e+00 4.23e+01  -7.5 5.78e+02    -  6.60e-01 8.04e-01h  1
 104 -6.0722345e+00 6.43e-01 9.94e+00  -7.5 1.03e+02    -  1.00e+00 8.46e-01h  1
 105 -6.0722308e+00 5.23e-03 2.10e-02  -7.5 1.75e+01    -  1.00e+00 1.00e+00h  1
 106 -6.0722308e+00 3.79e-07 1.81e-07  -7.5 1.59e-01    -  1.00e+00 1.00e+00h  1
 107 -6.0722322e+00 3.62e-03 6.85e-01  -9.0 1.79e+01    -  9.19e-01 8.44e-01h  1
 108 -6.0722325e+00 1.24e-04 4.88e-04  -9.0 2.78e+00    -  1.00e+00 1.00e+00h  1
 109 -6.0722325e+00 2.85e-10 4.42e-09  -9.0 2.04e-03    -  1.00e+00 1.00e+00h  1

Number of Iterations....: 109

                                   (scaled)                 (unscaled)
Objective...............:  -4.7439316270689078e+00   -6.0722324826482019e+00
Dual infeasibility......:   4.4245964156334343e-09    5.6634834120107959e-09
Constraint violation....:   2.8533941875963365e-10    2.8533941875963365e-10
Complementarity.........:   1.1109351492832025e-09    1.4219969910824993e-09
Overall NLP error.......:   4.4245964156334343e-09    5.6634834120107959e-09


Number of objective function evaluations             = 119
Number of objective gradient evaluations             = 110
Number of equality constraint evaluations            = 119
Number of inequality constraint evaluations          = 119
Number of equality constraint Jacobian evaluations   = 114
Number of inequality constraint Jacobian evaluations = 114
Number of Lagrangian Hessian evaluations             = 109
Total CPU secs in IPOPT (w/o function evaluations)   =    219.974
Total CPU secs in NLP function evaluations           =      4.305

EXIT: Optimal Solution Found.
